; benchmark generated from python API
(set-info :status unknown)
(declare-fun syscall_stub_newfstatat_83_64 () (_ BitVec 64))
(declare-fun mem_c0080014_89_32 () (_ BitVec 32))
(declare-fun mem_c0080018_88_32 () (_ BitVec 32))
(declare-fun mem_c0080024_86_32 () (_ BitVec 32))
(declare-fun mem_c0080020_87_32 () (_ BitVec 32))
(declare-fun mem_c0080010_84_32 () (_ BitVec 32))
(declare-fun mem_c0080008_85_32 () (_ BitVec 32))
(declare-fun mem_c0000f45_79_992 () (_ BitVec 992))
(declare-fun mem_fffffffffffffff0_163_128 () (_ BitVec 128))
(declare-fun mem_c0001010_98_32 () (_ BitVec 32))
(declare-fun mem_0_253_128 () (_ BitVec 128))
(assert
 (let ((?x47 ((_ extract 31 0) syscall_stub_newfstatat_83_64)))
 (bvule ?x47 (_ bv4294963200 32))))
(assert
 (let ((?x123 (bvadd mem_c0080018_88_32 mem_c0080014_89_32)))
 (let ((?x129 (concat (_ bv0 32) ?x123)))
 (let ((?x711628 (concat (concat (_ bv0 26) mem_c0080024_86_32) (_ bv0 1))))
 (let ((?x201 (concat (_ bv0 27) mem_c0080024_86_32)))
 (let ((?x941045 (bvadd ?x201 ?x711628)))
 (let ((?x943549 (concat ?x941045 (_ bv0 3))))
 (let ((?x1832913 (concat (concat (_ bv0 29) mem_c0080024_86_32) (_ bv0 1))))
 (let ((?x190 (concat (_ bv0 30) mem_c0080024_86_32)))
 (let ((?x933379 (bvadd (bvadd ?x190 ?x1832913) ?x943549)))
 (let ((?x916066 (concat ?x933379 (_ bv0 2))))
 (let ((?x168 (concat (_ bv0 32) mem_c0080020_87_32)))
 (let ((?x1047766 (bvadd ?x168 ?x916066)))
 (let ((?x207497 (concat (concat (_ bv0 29) mem_c0080010_84_32) (_ bv0 1))))
 (let ((?x161 (concat (_ bv0 30) mem_c0080010_84_32)))
 (let ((?x941238 (bvadd ?x161 ?x207497)))
 (let ((?x941697 (concat ?x941238 (_ bv0 2))))
 (let ((?x143 (concat (_ bv0 32) mem_c0080008_85_32)))
 (let ((?x918733 (bvadd ?x143 ?x941697)))
 (let (($x925534 (bvsle ?x1047766 ?x918733)))
 (let ((?x925339 (ite $x925534 ?x918733 ?x1047766)))
 (let (($x1833165 (bvsle ?x129 ?x925339)))
 (let ((?x1829721 (ite $x1833165 ?x925339 ?x129)))
 (let (($x922415 (= (_ bv0 64) ?x1829721)))
 (not $x922415)))))))))))))))))))))))))
(assert
 (let ((?x2374 ((_ extract 839 832) mem_c0000f45_79_992)))
 (let ((?x11156 (concat (_ bv72057594037927935 56) ?x2374)))
 (let ((?x11157 (bvmul (_ bv18446744073709551615 64) ?x11156)))
 (let ((?x2427 ((_ extract 775 768) mem_c0000f45_79_992)))
 (let ((?x2419 ((_ extract 767 760) mem_c0000f45_79_992)))
 (let ((?x2429 ((_ extract 759 752) mem_c0000f45_79_992)))
 (let ((?x2417 ((_ extract 751 744) mem_c0000f45_79_992)))
 (let ((?x2410 ((_ extract 743 736) mem_c0000f45_79_992)))
 (let ((?x2411 ((_ extract 735 728) mem_c0000f45_79_992)))
 (let ((?x4124 (concat (concat ((_ extract 719 712) mem_c0000f45_79_992) ((_ extract 727 720) mem_c0000f45_79_992)) ?x2411)))
 (let ((?x3823 (concat (concat (concat (concat (concat ?x4124 ?x2410) ?x2417) ?x2429) ?x2419) ?x2427)))
 (let ((?x17565 (bvadd ?x3823 ?x11157)))
 (let ((?x17657 ((_ extract 63 63) ?x17565)))
 (let (($x17606 (= (_ bv1 1) ?x17657)))
 (not $x17606))))))))))))))))
(assert
 (let ((?x2189 ((_ extract 900 900) mem_c0000f45_79_992)))
 (= (_ bv0 1) ?x2189)))
(assert
 (let ((?x4996 ((_ extract 837 832) mem_c0000f45_79_992)))
 (let (($x3467 (bvule ?x4996 (_ bv48 6))))
 (not $x3467))))
(assert
 (let ((?x6435 ((_ extract 839 836) mem_c0000f45_79_992)))
 (= (_ bv15 4) ?x6435)))
(assert
 (let ((?x6423 ((_ extract 835 832) mem_c0000f45_79_992)))
 (let ((?x6432 (concat (_ bv0 60) ?x6423)))
 (let ((?x76531 ((_ extract 7 0) mem_fffffffffffffff0_163_128)))
 (let (($x72760 (= (_ bv10 8) ?x76531)))
 (let ((?x58929 (ite $x72760 (_ bv1 1) (_ bv0 1))))
 (let ((?x70843 ((_ extract 15 8) mem_fffffffffffffff0_163_128)))
 (let (($x75953 (= (_ bv10 8) ?x70843)))
 (let ((?x59309 (ite $x75953 (_ bv1 1) (_ bv0 1))))
 (let ((?x58597 ((_ extract 23 16) mem_fffffffffffffff0_163_128)))
 (let (($x58964 (= (_ bv10 8) ?x58597)))
 (let ((?x64498 (ite $x58964 (_ bv1 1) (_ bv0 1))))
 (let ((?x58690 ((_ extract 31 24) mem_fffffffffffffff0_163_128)))
 (let (($x76776 (= (_ bv10 8) ?x58690)))
 (let ((?x59133 (ite $x76776 (_ bv1 1) (_ bv0 1))))
 (let ((?x77640 ((_ extract 39 32) mem_fffffffffffffff0_163_128)))
 (let (($x63433 (= (_ bv10 8) ?x77640)))
 (let ((?x63532 (ite $x63433 (_ bv1 1) (_ bv0 1))))
 (let ((?x62490 ((_ extract 47 40) mem_fffffffffffffff0_163_128)))
 (let (($x59208 (= (_ bv10 8) ?x62490)))
 (let ((?x63837 (ite $x59208 (_ bv1 1) (_ bv0 1))))
 (let ((?x76579 ((_ extract 55 48) mem_fffffffffffffff0_163_128)))
 (let (($x62873 (= (_ bv10 8) ?x76579)))
 (let ((?x59239 (ite $x62873 (_ bv1 1) (_ bv0 1))))
 (let ((?x57987 ((_ extract 63 56) mem_fffffffffffffff0_163_128)))
 (let (($x58712 (= (_ bv10 8) ?x57987)))
 (let ((?x62759 (ite $x58712 (_ bv1 1) (_ bv0 1))))
 (let ((?x77319 ((_ extract 71 64) mem_fffffffffffffff0_163_128)))
 (let (($x59058 (= (_ bv10 8) ?x77319)))
 (let ((?x71846 (ite $x59058 (_ bv1 1) (_ bv0 1))))
 (let ((?x63697 ((_ extract 79 72) mem_fffffffffffffff0_163_128)))
 (let (($x58146 (= (_ bv10 8) ?x63697)))
 (let ((?x57735 (ite $x58146 (_ bv1 1) (_ bv0 1))))
 (let ((?x63795 ((_ extract 87 80) mem_fffffffffffffff0_163_128)))
 (let (($x76994 (= (_ bv10 8) ?x63795)))
 (let ((?x64401 (ite $x76994 (_ bv1 1) (_ bv0 1))))
 (let ((?x71702 ((_ extract 95 88) mem_fffffffffffffff0_163_128)))
 (let (($x58127 (= (_ bv10 8) ?x71702)))
 (let ((?x58365 (ite $x58127 (_ bv1 1) (_ bv0 1))))
 (let ((?x58654 ((_ extract 103 96) mem_fffffffffffffff0_163_128)))
 (let (($x58383 (= (_ bv10 8) ?x58654)))
 (let ((?x63176 (ite $x58383 (_ bv1 1) (_ bv0 1))))
 (let ((?x71285 ((_ extract 111 104) mem_fffffffffffffff0_163_128)))
 (let (($x63962 (= (_ bv10 8) ?x71285)))
 (let ((?x63039 (ite $x63962 (_ bv1 1) (_ bv0 1))))
 (let ((?x58576 ((_ extract 119 112) mem_fffffffffffffff0_163_128)))
 (let (($x64005 (= (_ bv10 8) ?x58576)))
 (let ((?x71714 (ite $x64005 (_ bv1 1) (_ bv0 1))))
 (let ((?x63827 ((_ extract 127 120) mem_fffffffffffffff0_163_128)))
 (let (($x62607 (= (_ bv10 8) ?x63827)))
 (let ((?x70538 (ite $x62607 (_ bv1 1) (_ bv0 1))))
 (let ((?x64858 (concat (concat (concat (concat (concat (_ bv0 48) ?x70538) ?x71714) ?x63039) ?x63176) ?x58365)))
 (let ((?x61977 (concat (concat (concat (concat (concat ?x64858 ?x64401) ?x57735) ?x71846) ?x62759) ?x59239)))
 (let ((?x68508 (concat (concat (concat (concat (concat ?x61977 ?x63837) ?x63532) ?x59133) ?x64498) ?x59309)))
 (let ((?x57475 (concat ?x68508 ?x58929)))
 (let ((?x61781 (bvashr ?x57475 ?x6432)))
 (let ((?x61434 ((_ extract 31 0) ?x61781)))
 (= (_ bv0 32) ?x61434))))))))))))))))))))))))))))))))))))))))))))))))))))))))))
(assert
 (let ((?x6423 ((_ extract 835 832) mem_c0000f45_79_992)))
 (let ((?x6432 (concat (_ bv0 60) ?x6423)))
 (let ((?x10865 (bvmul (_ bv18446744073709551615 64) ?x6432)))
 (let ((?x10876 (bvadd (_ bv16 64) ?x10865)))
 (let ((?x2374 ((_ extract 839 832) mem_c0000f45_79_992)))
 (let ((?x11156 (concat (_ bv72057594037927935 56) ?x2374)))
 (let ((?x11157 (bvmul (_ bv18446744073709551615 64) ?x11156)))
 (let ((?x2427 ((_ extract 775 768) mem_c0000f45_79_992)))
 (let ((?x2419 ((_ extract 767 760) mem_c0000f45_79_992)))
 (let ((?x2429 ((_ extract 759 752) mem_c0000f45_79_992)))
 (let ((?x2417 ((_ extract 751 744) mem_c0000f45_79_992)))
 (let ((?x2410 ((_ extract 743 736) mem_c0000f45_79_992)))
 (let ((?x2411 ((_ extract 735 728) mem_c0000f45_79_992)))
 (let ((?x4124 (concat (concat ((_ extract 719 712) mem_c0000f45_79_992) ((_ extract 727 720) mem_c0000f45_79_992)) ?x2411)))
 (let ((?x3823 (concat (concat (concat (concat (concat ?x4124 ?x2410) ?x2417) ?x2429) ?x2419) ?x2427)))
 (let ((?x17565 (bvadd ?x3823 ?x11157)))
 (let ((?x3615 ((_ extract 824 824) mem_c0000f45_79_992)))
 (let ((?x3589 (concat ?x3615 ?x2374)))
 (let ((?x4638 (bvmul (_ bv511 9) ?x3589)))
 (let ((?x4203 ((_ extract 760 760) mem_c0000f45_79_992)))
 (let ((?x3607 (concat ?x4203 ?x2427)))
 (let ((?x3785 (bvadd ?x3607 ?x4638)))
 (let (($x4511 (bvule ?x3785 (_ bv399 9))))
 (let ((?x17607 ((_ extract 63 9) ?x17565)))
 (let (($x17611 (= (_ bv0 55) ?x17607)))
 (let (($x17584 (and $x17611 $x4511)))
 (let ((?x17711 (ite $x17584 ?x17565 (_ bv399 64))))
 (let (($x17615 (bvule ?x17711 ?x10876)))
 (not $x17615))))))))))))))))))))))))))))))
(assert
 (let ((?x6423 ((_ extract 835 832) mem_c0000f45_79_992)))
 (let ((?x10887 (concat (_ bv1152921504606846975 60) ?x6423)))
 (let ((?x2374 ((_ extract 839 832) mem_c0000f45_79_992)))
 (let ((?x11156 (concat (_ bv72057594037927935 56) ?x2374)))
 (let ((?x11157 (bvmul (_ bv18446744073709551615 64) ?x11156)))
 (let ((?x2427 ((_ extract 775 768) mem_c0000f45_79_992)))
 (let ((?x2419 ((_ extract 767 760) mem_c0000f45_79_992)))
 (let ((?x2429 ((_ extract 759 752) mem_c0000f45_79_992)))
 (let ((?x2417 ((_ extract 751 744) mem_c0000f45_79_992)))
 (let ((?x2410 ((_ extract 743 736) mem_c0000f45_79_992)))
 (let ((?x2411 ((_ extract 735 728) mem_c0000f45_79_992)))
 (let ((?x4124 (concat (concat ((_ extract 719 712) mem_c0000f45_79_992) ((_ extract 727 720) mem_c0000f45_79_992)) ?x2411)))
 (let ((?x3823 (concat (concat (concat (concat (concat ?x4124 ?x2410) ?x2417) ?x2429) ?x2419) ?x2427)))
 (let ((?x17565 (bvadd ?x3823 ?x11157)))
 (let ((?x3615 ((_ extract 824 824) mem_c0000f45_79_992)))
 (let ((?x3589 (concat ?x3615 ?x2374)))
 (let ((?x4638 (bvmul (_ bv511 9) ?x3589)))
 (let ((?x4203 ((_ extract 760 760) mem_c0000f45_79_992)))
 (let ((?x3607 (concat ?x4203 ?x2427)))
 (let ((?x3785 (bvadd ?x3607 ?x4638)))
 (let (($x4511 (bvule ?x3785 (_ bv399 9))))
 (let ((?x17607 ((_ extract 63 9) ?x17565)))
 (let (($x17611 (= (_ bv0 55) ?x17607)))
 (let (($x17584 (and $x17611 $x4511)))
 (let ((?x17711 (ite $x17584 ?x17565 (_ bv399 64))))
 (let ((?x17597 (bvadd ?x17711 ?x10887)))
 (let ((?x17570 ((_ extract 63 7) ?x17597)))
 (= (_ bv0 57) ?x17570)))))))))))))))))))))))))))))
(assert
 (let ((?x6423 ((_ extract 835 832) mem_c0000f45_79_992)))
 (let ((?x16888 (concat (_ bv268435455 28) ?x6423)))
 (let ((?x2374 ((_ extract 839 832) mem_c0000f45_79_992)))
 (let ((?x13019 (concat (_ bv16777215 24) ?x2374)))
 (let ((?x12062 (bvmul (_ bv4294967295 32) ?x13019)))
 (let ((?x2427 ((_ extract 775 768) mem_c0000f45_79_992)))
 (let ((?x2419 ((_ extract 767 760) mem_c0000f45_79_992)))
 (let ((?x21977 (concat (concat ((_ extract 751 744) mem_c0000f45_79_992) ((_ extract 759 752) mem_c0000f45_79_992)) ?x2419)))
 (let ((?x22501 (concat ?x21977 ?x2427)))
 (let ((?x15826 (bvadd ?x22501 ?x12062)))
 (let ((?x3615 ((_ extract 824 824) mem_c0000f45_79_992)))
 (let ((?x3589 (concat ?x3615 ?x2374)))
 (let ((?x4638 (bvmul (_ bv511 9) ?x3589)))
 (let ((?x4203 ((_ extract 760 760) mem_c0000f45_79_992)))
 (let ((?x3607 (concat ?x4203 ?x2427)))
 (let ((?x3785 (bvadd ?x3607 ?x4638)))
 (let (($x4511 (bvule ?x3785 (_ bv399 9))))
 (let ((?x11156 (concat (_ bv72057594037927935 56) ?x2374)))
 (let ((?x11157 (bvmul (_ bv18446744073709551615 64) ?x11156)))
 (let ((?x2429 ((_ extract 759 752) mem_c0000f45_79_992)))
 (let ((?x2417 ((_ extract 751 744) mem_c0000f45_79_992)))
 (let ((?x2410 ((_ extract 743 736) mem_c0000f45_79_992)))
 (let ((?x2411 ((_ extract 735 728) mem_c0000f45_79_992)))
 (let ((?x4124 (concat (concat ((_ extract 719 712) mem_c0000f45_79_992) ((_ extract 727 720) mem_c0000f45_79_992)) ?x2411)))
 (let ((?x3823 (concat (concat (concat (concat (concat ?x4124 ?x2410) ?x2417) ?x2429) ?x2419) ?x2427)))
 (let ((?x17565 (bvadd ?x3823 ?x11157)))
 (let ((?x17607 ((_ extract 63 9) ?x17565)))
 (let (($x17611 (= (_ bv0 55) ?x17607)))
 (let (($x17584 (and $x17611 $x4511)))
 (let ((?x15819 (ite $x17584 ?x15826 (_ bv399 32))))
 (let ((?x15770 (bvadd (bvadd (_ bv4294967264 32) ?x15819) ?x16888)))
 (let ((?x15648 ((_ extract 31 31) ?x15770)))
 (let ((?x10887 (concat (_ bv1152921504606846975 60) ?x6423)))
 (let ((?x15268 (bvadd (bvadd (_ bv18446744073709551552 64) (ite $x17584 ?x17565 (_ bv399 64))) ?x10887)))
 (let ((?x15576 ((_ extract 31 31) ?x15268)))
 (let (($x15341 (= ?x15576 ?x15648)))
 (let (($x15672 (= (_ bv1 1) ?x15576)))
 (let (($x15917 (or $x15672 $x15341)))
 (let ((?x15910 (ite $x15917 (_ bv1 1) (_ bv0 1))))
 (let (($x15945 (= ?x15648 ?x15910)))
 (not $x15945))))))))))))))))))))))))))))))))))))))))))
(assert
 (let ((?x2364 ((_ extract 831 824) mem_c0000f45_79_992)))
 (= (_ bv255 8) ?x2364)))
(assert
 (let ((?x2349 ((_ extract 823 816) mem_c0000f45_79_992)))
 (= (_ bv255 8) ?x2349)))
(assert
 (let ((?x2357 ((_ extract 815 808) mem_c0000f45_79_992)))
 (= (_ bv255 8) ?x2357)))
(assert
 (let ((?x2362 ((_ extract 807 800) mem_c0000f45_79_992)))
 (= (_ bv255 8) ?x2362)))
(assert
 (let ((?x2363 ((_ extract 799 792) mem_c0000f45_79_992)))
 (= (_ bv255 8) ?x2363)))
(assert
 (let ((?x2346 ((_ extract 791 784) mem_c0000f45_79_992)))
 (= (_ bv255 8) ?x2346)))
(assert
 (let ((?x2345 ((_ extract 783 776) mem_c0000f45_79_992)))
 (= (_ bv255 8) ?x2345)))
(assert
 (let ((?x6423 ((_ extract 835 832) mem_c0000f45_79_992)))
 (let ((?x14178 (concat (_ bv7 3) ?x6423)))
 (let ((?x14167 ((_ extract 838 832) mem_c0000f45_79_992)))
 (let ((?x14394 (bvmul (_ bv127 7) ?x14167)))
 (let ((?x13987 ((_ extract 774 768) mem_c0000f45_79_992)))
 (let ((?x14007 (bvadd ?x13987 ?x14394)))
 (let ((?x2374 ((_ extract 839 832) mem_c0000f45_79_992)))
 (let ((?x3615 ((_ extract 824 824) mem_c0000f45_79_992)))
 (let ((?x3589 (concat ?x3615 ?x2374)))
 (let ((?x4638 (bvmul (_ bv511 9) ?x3589)))
 (let ((?x2427 ((_ extract 775 768) mem_c0000f45_79_992)))
 (let ((?x4203 ((_ extract 760 760) mem_c0000f45_79_992)))
 (let ((?x3607 (concat ?x4203 ?x2427)))
 (let ((?x3785 (bvadd ?x3607 ?x4638)))
 (let (($x4511 (bvule ?x3785 (_ bv399 9))))
 (let ((?x11156 (concat (_ bv72057594037927935 56) ?x2374)))
 (let ((?x11157 (bvmul (_ bv18446744073709551615 64) ?x11156)))
 (let ((?x2419 ((_ extract 767 760) mem_c0000f45_79_992)))
 (let ((?x2429 ((_ extract 759 752) mem_c0000f45_79_992)))
 (let ((?x2417 ((_ extract 751 744) mem_c0000f45_79_992)))
 (let ((?x2410 ((_ extract 743 736) mem_c0000f45_79_992)))
 (let ((?x2411 ((_ extract 735 728) mem_c0000f45_79_992)))
 (let ((?x4124 (concat (concat ((_ extract 719 712) mem_c0000f45_79_992) ((_ extract 727 720) mem_c0000f45_79_992)) ?x2411)))
 (let ((?x3823 (concat (concat (concat (concat (concat ?x4124 ?x2410) ?x2417) ?x2429) ?x2419) ?x2427)))
 (let ((?x17565 (bvadd ?x3823 ?x11157)))
 (let ((?x17607 ((_ extract 63 9) ?x17565)))
 (let (($x17611 (= (_ bv0 55) ?x17607)))
 (let (($x17584 (and $x17611 $x4511)))
 (let ((?x17612 (ite $x17584 ?x14007 (_ bv15 7))))
 (let ((?x17567 (bvadd ?x17612 ?x14178)))
 (bvule ?x17567 (_ bv64 7)))))))))))))))))))))))))))))))))
(assert
 (let ((?x6423 ((_ extract 835 832) mem_c0000f45_79_992)))
 (let ((?x16888 (concat (_ bv268435455 28) ?x6423)))
 (let ((?x15474 (bvmul (_ bv4294967295 32) ?x16888)))
 (let ((?x15679 (bvadd (_ bv32 32) ?x15474)))
 (let ((?x2374 ((_ extract 839 832) mem_c0000f45_79_992)))
 (let ((?x13019 (concat (_ bv16777215 24) ?x2374)))
 (let ((?x12062 (bvmul (_ bv4294967295 32) ?x13019)))
 (let ((?x2427 ((_ extract 775 768) mem_c0000f45_79_992)))
 (let ((?x2419 ((_ extract 767 760) mem_c0000f45_79_992)))
 (let ((?x21977 (concat (concat ((_ extract 751 744) mem_c0000f45_79_992) ((_ extract 759 752) mem_c0000f45_79_992)) ?x2419)))
 (let ((?x22501 (concat ?x21977 ?x2427)))
 (let ((?x15826 (bvadd ?x22501 ?x12062)))
 (let ((?x3615 ((_ extract 824 824) mem_c0000f45_79_992)))
 (let ((?x3589 (concat ?x3615 ?x2374)))
 (let ((?x4638 (bvmul (_ bv511 9) ?x3589)))
 (let ((?x4203 ((_ extract 760 760) mem_c0000f45_79_992)))
 (let ((?x3607 (concat ?x4203 ?x2427)))
 (let ((?x3785 (bvadd ?x3607 ?x4638)))
 (let (($x4511 (bvule ?x3785 (_ bv399 9))))
 (let ((?x11156 (concat (_ bv72057594037927935 56) ?x2374)))
 (let ((?x11157 (bvmul (_ bv18446744073709551615 64) ?x11156)))
 (let ((?x2429 ((_ extract 759 752) mem_c0000f45_79_992)))
 (let ((?x2417 ((_ extract 751 744) mem_c0000f45_79_992)))
 (let ((?x2410 ((_ extract 743 736) mem_c0000f45_79_992)))
 (let ((?x2411 ((_ extract 735 728) mem_c0000f45_79_992)))
 (let ((?x4124 (concat (concat ((_ extract 719 712) mem_c0000f45_79_992) ((_ extract 727 720) mem_c0000f45_79_992)) ?x2411)))
 (let ((?x3823 (concat (concat (concat (concat (concat ?x4124 ?x2410) ?x2417) ?x2429) ?x2419) ?x2427)))
 (let ((?x17565 (bvadd ?x3823 ?x11157)))
 (let ((?x17607 ((_ extract 63 9) ?x17565)))
 (let (($x17611 (= (_ bv0 55) ?x17607)))
 (let (($x17584 (and $x17611 $x4511)))
 (let ((?x15819 (ite $x17584 ?x15826 (_ bv399 32))))
 (let (($x15763 (= ?x15819 ?x15679)))
 (not $x15763)))))))))))))))))))))))))))))))))))
(assert
 (let ((?x2400 ((_ extract 719 712) mem_c0000f45_79_992)))
 (let (($x17560 (= (_ bv255 8) ?x2400)))
 (let (($x17562 (not $x17560)))
 (let ((?x2374 ((_ extract 839 832) mem_c0000f45_79_992)))
 (let ((?x2427 ((_ extract 775 768) mem_c0000f45_79_992)))
 (let (($x1152 (= ?x2427 ?x2374)))
 (let (($x4139 (not $x1152)))
 (let ((?x2411 ((_ extract 735 728) mem_c0000f45_79_992)))
 (let (($x17604 (= (_ bv255 8) ?x2411)))
 (let (($x17721 (not $x17604)))
 (let ((?x2401 ((_ extract 727 720) mem_c0000f45_79_992)))
 (let (($x17731 (= (_ bv255 8) ?x2401)))
 (let (($x17664 (not $x17731)))
 (let ((?x2417 ((_ extract 751 744) mem_c0000f45_79_992)))
 (let (($x17650 (= (_ bv255 8) ?x2417)))
 (let (($x17555 (not $x17650)))
 (let ((?x2410 ((_ extract 743 736) mem_c0000f45_79_992)))
 (let (($x17595 (= (_ bv255 8) ?x2410)))
 (let (($x17616 (not $x17595)))
 (let ((?x2419 ((_ extract 767 760) mem_c0000f45_79_992)))
 (let (($x17574 (= (_ bv255 8) ?x2419)))
 (let (($x17598 (not $x17574)))
 (let ((?x2429 ((_ extract 759 752) mem_c0000f45_79_992)))
 (let (($x17591 (= (_ bv255 8) ?x2429)))
 (let (($x17582 (not $x17591)))
 (or $x17582 $x17598 $x17616 $x17555 $x17664 $x17721 $x4139 $x17562)))))))))))))))))))))))))))
(assert
 (let (($x2293 (= (_ bv0 32) mem_c0001010_98_32)))
 (not $x2293)))
(assert
 (let ((?x6435 ((_ extract 839 836) mem_c0000f45_79_992)))
 (let ((?x2364 ((_ extract 831 824) mem_c0000f45_79_992)))
 (let ((?x2349 ((_ extract 823 816) mem_c0000f45_79_992)))
 (let ((?x2357 ((_ extract 815 808) mem_c0000f45_79_992)))
 (let ((?x2362 ((_ extract 807 800) mem_c0000f45_79_992)))
 (let ((?x2363 ((_ extract 799 792) mem_c0000f45_79_992)))
 (let ((?x593 (concat (concat ((_ extract 783 776) mem_c0000f45_79_992) ((_ extract 791 784) mem_c0000f45_79_992)) ?x2363)))
 (let ((?x4215 (concat (concat (concat (concat ?x593 ?x2362) ?x2357) ?x2349) ?x2364)))
 (let ((?x14202 (concat (concat ?x4215 ?x6435) (_ bv0 4))))
 (let ((?x17680 (bvadd (_ bv16 64) ?x14202)))
 (= (_ bv0 64) ?x17680))))))))))))
(assert
 (let ((?x208205 ((_ extract 7 0) mem_0_253_128)))
 (let (($x207606 (= (_ bv10 8) ?x208205)))
 (let ((?x25193 (ite $x207606 (_ bv1 1) (_ bv0 1))))
 (let ((?x198526 ((_ extract 15 8) mem_0_253_128)))
 (let (($x208396 (= (_ bv10 8) ?x198526)))
 (let ((?x23416 (ite $x208396 (_ bv1 1) (_ bv0 1))))
 (let ((?x133163 ((_ extract 23 16) mem_0_253_128)))
 (let (($x206120 (= (_ bv10 8) ?x133163)))
 (let ((?x24664 (ite $x206120 (_ bv1 1) (_ bv0 1))))
 (let ((?x206209 ((_ extract 31 24) mem_0_253_128)))
 (let (($x206660 (= (_ bv10 8) ?x206209)))
 (let ((?x24275 (ite $x206660 (_ bv1 1) (_ bv0 1))))
 (let ((?x127259 ((_ extract 39 32) mem_0_253_128)))
 (let (($x199453 (= (_ bv10 8) ?x127259)))
 (let ((?x25030 (ite $x199453 (_ bv1 1) (_ bv0 1))))
 (let ((?x206401 ((_ extract 47 40) mem_0_253_128)))
 (let (($x207041 (= (_ bv10 8) ?x206401)))
 (let ((?x23507 (ite $x207041 (_ bv1 1) (_ bv0 1))))
 (let ((?x201123 ((_ extract 55 48) mem_0_253_128)))
 (let (($x127117 (= (_ bv10 8) ?x201123)))
 (let ((?x25998 (ite $x127117 (_ bv1 1) (_ bv0 1))))
 (let ((?x208077 ((_ extract 63 56) mem_0_253_128)))
 (let (($x207020 (= (_ bv10 8) ?x208077)))
 (let ((?x23435 (ite $x207020 (_ bv1 1) (_ bv0 1))))
 (let ((?x209047 ((_ extract 71 64) mem_0_253_128)))
 (let (($x207191 (= (_ bv10 8) ?x209047)))
 (let ((?x25413 (ite $x207191 (_ bv1 1) (_ bv0 1))))
 (let ((?x200682 ((_ extract 79 72) mem_0_253_128)))
 (let (($x208879 (= (_ bv10 8) ?x200682)))
 (let ((?x23763 (ite $x208879 (_ bv1 1) (_ bv0 1))))
 (let ((?x195467 ((_ extract 87 80) mem_0_253_128)))
 (let (($x208971 (= (_ bv10 8) ?x195467)))
 (let ((?x23524 (ite $x208971 (_ bv1 1) (_ bv0 1))))
 (let ((?x205430 ((_ extract 95 88) mem_0_253_128)))
 (let (($x208989 (= (_ bv10 8) ?x205430)))
 (let ((?x25389 (ite $x208989 (_ bv1 1) (_ bv0 1))))
 (let ((?x208289 ((_ extract 103 96) mem_0_253_128)))
 (let (($x207572 (= (_ bv10 8) ?x208289)))
 (let ((?x15164 (ite $x207572 (_ bv1 1) (_ bv0 1))))
 (let ((?x208730 ((_ extract 111 104) mem_0_253_128)))
 (let (($x209419 (= (_ bv10 8) ?x208730)))
 (let ((?x15913 (ite $x209419 (_ bv1 1) (_ bv0 1))))
 (let ((?x207326 ((_ extract 119 112) mem_0_253_128)))
 (let (($x209045 (= (_ bv10 8) ?x207326)))
 (let ((?x25997 (ite $x209045 (_ bv1 1) (_ bv0 1))))
 (let ((?x206259 ((_ extract 127 120) mem_0_253_128)))
 (let (($x207722 (= (_ bv10 8) ?x206259)))
 (let ((?x25168 (ite $x207722 (_ bv1 1) (_ bv0 1))))
 (let ((?x12198 (concat (concat (concat (concat (concat ?x25168 ?x25997) ?x15913) ?x15164) ?x25389) ?x23524)))
 (let ((?x14415 (concat (concat (concat (concat (concat ?x12198 ?x23763) ?x25413) ?x23435) ?x25998) ?x23507)))
 (let ((?x18562 (concat (concat (concat (concat (concat ?x14415 ?x25030) ?x24275) ?x24664) ?x23416) ?x25193)))
 (and (distinct (_ bv0 16) ?x18562) true)))))))))))))))))))))))))))))))))))))))))))))))))))))
(assert
 (let ((?x6435 ((_ extract 839 836) mem_c0000f45_79_992)))
 (let ((?x2364 ((_ extract 831 824) mem_c0000f45_79_992)))
 (let ((?x2349 ((_ extract 823 816) mem_c0000f45_79_992)))
 (let ((?x2357 ((_ extract 815 808) mem_c0000f45_79_992)))
 (let ((?x2362 ((_ extract 807 800) mem_c0000f45_79_992)))
 (let ((?x2363 ((_ extract 799 792) mem_c0000f45_79_992)))
 (let ((?x593 (concat (concat ((_ extract 783 776) mem_c0000f45_79_992) ((_ extract 791 784) mem_c0000f45_79_992)) ?x2363)))
 (let ((?x4215 (concat (concat (concat (concat ?x593 ?x2362) ?x2357) ?x2349) ?x2364)))
 (let ((?x14202 (concat (concat ?x4215 ?x6435) (_ bv0 4))))
 (let ((?x206259 ((_ extract 127 120) mem_0_253_128)))
 (let (($x207722 (= (_ bv10 8) ?x206259)))
 (let ((?x395456 (ite $x207722 (_ bv15 32) (_ bv64 32))))
 (let ((?x207326 ((_ extract 119 112) mem_0_253_128)))
 (let (($x209045 (= (_ bv10 8) ?x207326)))
 (let ((?x386327 (ite $x209045 (_ bv14 32) ?x395456)))
 (let ((?x208730 ((_ extract 111 104) mem_0_253_128)))
 (let (($x209419 (= (_ bv10 8) ?x208730)))
 (let ((?x387087 (ite $x209419 (_ bv13 32) ?x386327)))
 (let ((?x208289 ((_ extract 103 96) mem_0_253_128)))
 (let (($x207572 (= (_ bv10 8) ?x208289)))
 (let ((?x396868 (ite $x207572 (_ bv12 32) ?x387087)))
 (let ((?x205430 ((_ extract 95 88) mem_0_253_128)))
 (let (($x208989 (= (_ bv10 8) ?x205430)))
 (let ((?x397172 (ite $x208989 (_ bv11 32) ?x396868)))
 (let ((?x195467 ((_ extract 87 80) mem_0_253_128)))
 (let (($x208971 (= (_ bv10 8) ?x195467)))
 (let ((?x194018 (ite $x208971 (_ bv10 32) ?x397172)))
 (let ((?x200682 ((_ extract 79 72) mem_0_253_128)))
 (let (($x208879 (= (_ bv10 8) ?x200682)))
 (let ((?x396882 (ite $x208879 (_ bv9 32) ?x194018)))
 (let ((?x209047 ((_ extract 71 64) mem_0_253_128)))
 (let (($x207191 (= (_ bv10 8) ?x209047)))
 (let ((?x397994 (ite $x207191 (_ bv8 32) ?x396882)))
 (let ((?x208077 ((_ extract 63 56) mem_0_253_128)))
 (let (($x207020 (= (_ bv10 8) ?x208077)))
 (let ((?x396084 (ite $x207020 (_ bv7 32) ?x397994)))
 (let ((?x201123 ((_ extract 55 48) mem_0_253_128)))
 (let (($x127117 (= (_ bv10 8) ?x201123)))
 (let ((?x396695 (ite $x127117 (_ bv6 32) ?x396084)))
 (let ((?x206401 ((_ extract 47 40) mem_0_253_128)))
 (let (($x207041 (= (_ bv10 8) ?x206401)))
 (let ((?x396931 (ite $x207041 (_ bv5 32) ?x396695)))
 (let ((?x127259 ((_ extract 39 32) mem_0_253_128)))
 (let (($x199453 (= (_ bv10 8) ?x127259)))
 (let ((?x201503 (ite $x199453 (_ bv4 32) ?x396931)))
 (let ((?x206209 ((_ extract 31 24) mem_0_253_128)))
 (let (($x206660 (= (_ bv10 8) ?x206209)))
 (let ((?x394327 (ite $x206660 (_ bv3 32) ?x201503)))
 (let ((?x133163 ((_ extract 23 16) mem_0_253_128)))
 (let (($x206120 (= (_ bv10 8) ?x133163)))
 (let ((?x395353 (ite $x206120 (_ bv2 32) ?x394327)))
 (let ((?x198526 ((_ extract 15 8) mem_0_253_128)))
 (let (($x208396 (= (_ bv10 8) ?x198526)))
 (let ((?x202066 (ite $x208396 (_ bv1 32) ?x395353)))
 (let ((?x208205 ((_ extract 7 0) mem_0_253_128)))
 (let (($x207606 (= (_ bv10 8) ?x208205)))
 (let ((?x395504 (ite $x207606 (_ bv0 32) ?x202066)))
 (let ((?x25193 (ite $x207606 (_ bv1 1) (_ bv0 1))))
 (let ((?x23416 (ite $x208396 (_ bv1 1) (_ bv0 1))))
 (let ((?x24664 (ite $x206120 (_ bv1 1) (_ bv0 1))))
 (let ((?x24275 (ite $x206660 (_ bv1 1) (_ bv0 1))))
 (let ((?x25030 (ite $x199453 (_ bv1 1) (_ bv0 1))))
 (let ((?x23507 (ite $x207041 (_ bv1 1) (_ bv0 1))))
 (let ((?x25998 (ite $x127117 (_ bv1 1) (_ bv0 1))))
 (let ((?x23435 (ite $x207020 (_ bv1 1) (_ bv0 1))))
 (let ((?x25413 (ite $x207191 (_ bv1 1) (_ bv0 1))))
 (let ((?x23763 (ite $x208879 (_ bv1 1) (_ bv0 1))))
 (let ((?x23524 (ite $x208971 (_ bv1 1) (_ bv0 1))))
 (let ((?x25389 (ite $x208989 (_ bv1 1) (_ bv0 1))))
 (let ((?x15164 (ite $x207572 (_ bv1 1) (_ bv0 1))))
 (let ((?x15913 (ite $x209419 (_ bv1 1) (_ bv0 1))))
 (let ((?x440748 (concat (concat (concat (_ bv0 16) (ite $x207722 (_ bv1 1) (_ bv0 1))) (ite $x209045 (_ bv1 1) (_ bv0 1))) ?x15913)))
 (let ((?x402479 (concat (concat (concat (concat (concat ?x440748 ?x15164) ?x25389) ?x23524) ?x23763) ?x25413)))
 (let ((?x441696 (concat (concat (concat (concat (concat ?x402479 ?x23435) ?x25998) ?x23507) ?x25030) ?x24275)))
 (let ((?x399880 (concat (concat (concat ?x441696 ?x24664) ?x23416) ?x25193)))
 (let (($x655632 (not $x207722)))
 (let (($x656854 (not $x209045)))
 (let (($x654533 (not $x209419)))
 (let (($x651434 (not $x207572)))
 (let (($x656758 (not $x208989)))
 (let (($x657598 (not $x208971)))
 (let (($x653873 (not $x208879)))
 (let (($x659647 (not $x207191)))
 (let (($x656543 (not $x207020)))
 (let (($x657361 (not $x127117)))
 (let (($x661494 (not $x207041)))
 (let (($x650568 (not $x199453)))
 (let (($x650774 (not $x206660)))
 (let (($x657712 (not $x206120)))
 (let (($x657316 (not $x208396)))
 (let (($x656872 (not $x207606)))
 (let (($x199541 (and $x656872 $x657316 $x657712 $x650774 $x650568 $x661494 $x657361 $x656543 $x659647 $x653873 $x657598 $x656758 $x651434 $x654533 $x656854 $x655632)))
 (let ((?x393288 (ite $x199541 ?x399880 ?x395504)))
 (let ((?x663769 (concat (_ bv0 32) ?x393288)))
 (let ((?x653896 (bvadd (bvadd (_ bv16 64) ?x663769) ?x14202)))
 (= (_ bv0 64) ?x653896)))))))))))))))))))))))))))))))))))))))))))))))))))))))))))))))))))))))))))))))))))))))))))))))))
(maximize mem_c0080020_87_32)
(maximize syscall_stub_newfstatat_83_64)
(maximize mem_c0080010_84_32)
(minimize mem_c0080008_85_32)
(minimize mem_0_253_128)
(minimize mem_fffffffffffffff0_163_128)
(maximize mem_c0080018_88_32)
(maximize mem_fffffffffffffff0_163_128)
(minimize mem_c0080010_84_32)
(minimize mem_c0000f45_79_992)
(minimize mem_c0080024_86_32)
(minimize mem_c0080014_89_32)
(maximize mem_c0080008_85_32)
(minimize syscall_stub_newfstatat_83_64)
(maximize mem_c0080024_86_32)
(maximize mem_c0000f45_79_992)
(minimize mem_c0001010_98_32)
(maximize mem_c0001010_98_32)
(check-sat)
(get-objectives)
